(define-fun
  i1
  ((x Int)) Int x)
(define-fun
  h1
  ((x Int) (y Int)) Int y)
(define-fun
  h0
  ((x Int)) Int x)
(define-fun
  g1
  ((x Int)) Int x)
(define-fun
  fast
  ((x Int)) Int (+ 1 (* 2 (* (+ 1 2) (* (+ 1 (+ x x)) (+ 1 x))))))
(define-fun
  f1
  ((x Int) (y Int)) Int (+ (* (+ x y) y) x))
(define-funs-rec
  ((u1
    ((x Int) (y Int) (z Int)) Int)
   (v1
    ((x Int) (y Int) (z Int)) Int))
  ((ite (<= x 0) y (f1 (u1 (- x 1) y z) (v1 (- x 1) y z)))
   (ite (<= x 0) z (u1 (- x 1) y z))))
(define-fun
  w1
  ((x Int) (y Int)) Int (u1 y x 1))
(define-fun-rec
  u0
  ((x Int) (y Int)) Int (ite (<= x 0) y (w1 (u0 (- x 1) y) x)))
(define-fun
  v0
  ((x Int)) Int (u0 2 x))
(assert-not
  (forall ((c Int)) (or (not (>= c 0)) (= (v0 c) (fast c)))))
